(declare-fun C1 () Real)
(declare-fun C2 () Real)
(declare-fun C3 () Real)
(declare-fun C4 () Real)
(declare-fun C5 () Real)
(declare-fun C6 () Real)
(declare-fun C7 () Real)
(declare-fun C8 () Real)
(declare-fun C9 () Real)
(declare-fun C10 () Real)
(declare-fun y () Real)
(assert ( and ( or  (<=  (+  (* 3 C1)  (* 1 C2)  (* 1 C3)  (* 1 C4)  (* 1 C5)  (* 1 C6)  (* 1 C7)  (* 1 C8)  (* 1 C9)  (* 1 C10) ) 1353 )  (<=  (+  (* 4 C1)  (* 1 C2)  (* 1 C3)  (* 1 C4)  (* 1 C5)  (* 1 C6)  (* 1 C7)  (* 1 C8)  (* 1 C9)  (* 1 C10) ) 1566 )  (<=  (+  (* 4 C1)  (* 2 C2)  (* 1 C3)  (* 1 C4)  (* 1 C5)  (* 1 C6)  (* 1 C7)  (* 1 C8)  (* 1 C9)  (* 1 C10) ) 1804 )  (<=  (+  (* 5 C1)  (* 2 C2)  (* 1 C3)  (* 1 C4)  (* 1 C5)  (* 1 C6)  (* 1 C7)  (* 1 C8)  (* 1 C9)  (* 1 C10) ) 2207 )  (<=  (+  (* 5 C1)  (* 2 C2)  (* 2 C3)  (* 1 C4)  (* 1 C5)  (* 1 C6)  (* 1 C7)  (* 1 C8)  (* 1 C9)  (* 1 C10) ) 2255 )  (<=  (+  (* 6 C1)  (* 2 C2)  (* 2 C3)  (* 1 C4)  (* 1 C5)  (* 1 C6)  (* 1 C7)  (* 1 C8)  (* 1 C9)  (* 1 C10) ) 2262 )  (<=  (+  (* 6 C1)  (* 2 C2)  (* 2 C3)  (* 2 C4)  (* 1 C5)  (* 1 C6)  (* 1 C7)  (* 1 C8)  (* 1 C9)  (* 1 C10) ) 2460 )  (<=  (+  (* 6 C1)  (* 2 C2)  (* 2 C3)  (* 2 C4)  (* 2 C5)  (* 1 C6)  (* 1 C7)  (* 1 C8)  (* 1 C9)  (* 1 C10) ) 2567 )  (<=  (+  (* 6 C1)  (* 2 C2)  (* 2 C3)  (* 2 C4)  (* 2 C5)  (* 2 C6)  (* 1 C7)  (* 1 C8)  (* 1 C9)  (* 1 C10) ) 2706 )  (<=  (+  (* 7 C1)  (* 2 C2)  (* 2 C3)  (* 2 C4)  (* 2 C5)  (* 2 C6)  (* 1 C7)  (* 1 C8)  (* 1 C9)  (* 1 C10) ) 3132 )  (<=  (+  (* 7 C1)  (* 3 C2)  (* 2 C3)  (* 2 C4)  (* 2 C5)  (* 2 C6)  (* 1 C7)  (* 1 C8)  (* 1 C9)  (* 1 C10) ) 3147 )  (<=  (+  (* 8 C1)  (* 3 C2)  (* 2 C3)  (* 2 C4)  (* 2 C5)  (* 2 C6)  (* 2 C7)  (* 1 C8)  (* 1 C9)  (* 1 C10) ) 3608 )  (<=  (+  (* 9 C1)  (* 3 C2)  (* 2 C3)  (* 2 C4)  (* 2 C5)  (* 2 C6)  (* 2 C7)  (* 1 C8)  (* 1 C9)  (* 1 C10) ) 3890 )  (<=  (+  (* 9 C1)  (* 3 C2)  (* 2 C3)  (* 2 C4)  (* 2 C5)  (* 2 C6)  (* 2 C7)  (* 2 C8)  (* 1 C9)  (* 1 C10) ) 3912 )  (<=  (+  (* 9 C1)  (* 3 C2)  (* 2 C3)  (* 2 C4)  (* 2 C5)  (* 2 C6)  (* 2 C7)  (* 2 C8)  (* 2 C9)  (* 1 C10) ) 4059 )  (<=  (+  (* 10 C1)  (* 3 C2)  (* 2 C3)  (* 2 C4)  (* 2 C5)  (* 2 C6)  (* 2 C7)  (* 2 C8)  (* 2 C9)  (* 1 C10) ) 4414 )  (<=  (+  (* 10 C1)  (* 3 C2)  (* 3 C3)  (* 2 C4)  (* 2 C5)  (* 2 C6)  (* 2 C7)  (* 2 C8)  (* 2 C9)  (* 1 C10) ) 4510 )  (<=  (+  (* 11 C1)  (* 3 C2)  (* 3 C3)  (* 2 C4)  (* 2 C5)  (* 2 C6)  (* 2 C7)  (* 2 C8)  (* 2 C9)  (* 1 C10) ) 4524 )  (<=  (+  (* 11 C1)  (* 3 C2)  (* 3 C3)  (* 3 C4)  (* 2 C5)  (* 2 C6)  (* 2 C7)  (* 2 C8)  (* 2 C9)  (* 1 C10) ) 4651 ) ) ( or  (<=  (+  (* 3 C1)  (* 1 C2)  (* 1 C3)  (* 1 C4)  (* 1 C5)  (* 1 C6)  (* 1 C7)  (* 1 C8)  (* 1 C9) ) 1353 )  (<=  (+  (* 4 C1)  (* 1 C2)  (* 1 C3)  (* 1 C4)  (* 1 C5)  (* 1 C6)  (* 1 C7)  (* 1 C8)  (* 1 C9) ) 1566 )  (<=  (+  (* 4 C1)  (* 2 C2)  (* 1 C3)  (* 1 C4)  (* 1 C5)  (* 1 C6)  (* 1 C7)  (* 1 C8)  (* 1 C9) ) 1804 )  (<=  (+  (* 5 C1)  (* 2 C2)  (* 1 C3)  (* 1 C4)  (* 1 C5)  (* 1 C6)  (* 1 C7)  (* 1 C8)  (* 1 C9) ) 2207 )  (<=  (+  (* 5 C1)  (* 2 C2)  (* 2 C3)  (* 1 C4)  (* 1 C5)  (* 1 C6)  (* 1 C7)  (* 1 C8)  (* 1 C9) ) 2255 )  (<=  (+  (* 6 C1)  (* 2 C2)  (* 2 C3)  (* 1 C4)  (* 1 C5)  (* 1 C6)  (* 1 C7)  (* 1 C8)  (* 1 C9) ) 2262 )  (<=  (+  (* 6 C1)  (* 2 C2)  (* 2 C3)  (* 2 C4)  (* 1 C5)  (* 1 C6)  (* 1 C7)  (* 1 C8)  (* 1 C9) ) 2460 )  (<=  (+  (* 6 C1)  (* 2 C2)  (* 2 C3)  (* 2 C4)  (* 2 C5)  (* 1 C6)  (* 1 C7)  (* 1 C8)  (* 1 C9) ) 2567 )  (<=  (+  (* 6 C1)  (* 2 C2)  (* 2 C3)  (* 2 C4)  (* 2 C5)  (* 2 C6)  (* 1 C7)  (* 1 C8)  (* 1 C9) ) 2706 )  (<=  (+  (* 7 C1)  (* 2 C2)  (* 2 C3)  (* 2 C4)  (* 2 C5)  (* 2 C6)  (* 1 C7)  (* 1 C8)  (* 1 C9) ) 3132 )  (<=  (+  (* 7 C1)  (* 3 C2)  (* 2 C3)  (* 2 C4)  (* 2 C5)  (* 2 C6)  (* 1 C7)  (* 1 C8)  (* 1 C9) ) 3147 )  (<=  (+  (* 8 C1)  (* 3 C2)  (* 2 C3)  (* 2 C4)  (* 2 C5)  (* 2 C6)  (* 2 C7)  (* 1 C8)  (* 1 C9) ) 3608 )  (<=  (+  (* 9 C1)  (* 3 C2)  (* 2 C3)  (* 2 C4)  (* 2 C5)  (* 2 C6)  (* 2 C7)  (* 1 C8)  (* 1 C9) ) 3890 )  (<=  (+  (* 9 C1)  (* 3 C2)  (* 2 C3)  (* 2 C4)  (* 2 C5)  (* 2 C6)  (* 2 C7)  (* 2 C8)  (* 1 C9) ) 3912 ) ) ( or  (<=  (+  (* 3 C1)  (* 1 C2)  (* 1 C3)  (* 1 C4)  (* 1 C5)  (* 1 C6)  (* 1 C7)  (* 1 C8) ) 1353 )  (<=  (+  (* 4 C1)  (* 1 C2)  (* 1 C3)  (* 1 C4)  (* 1 C5)  (* 1 C6)  (* 1 C7)  (* 1 C8) ) 1566 )  (<=  (+  (* 4 C1)  (* 2 C2)  (* 1 C3)  (* 1 C4)  (* 1 C5)  (* 1 C6)  (* 1 C7)  (* 1 C8) ) 1804 )  (<=  (+  (* 5 C1)  (* 2 C2)  (* 1 C3)  (* 1 C4)  (* 1 C5)  (* 1 C6)  (* 1 C7)  (* 1 C8) ) 2207 )  (<=  (+  (* 5 C1)  (* 2 C2)  (* 2 C3)  (* 1 C4)  (* 1 C5)  (* 1 C6)  (* 1 C7)  (* 1 C8) ) 2255 )  (<=  (+  (* 6 C1)  (* 2 C2)  (* 2 C3)  (* 1 C4)  (* 1 C5)  (* 1 C6)  (* 1 C7)  (* 1 C8) ) 2262 )  (<=  (+  (* 6 C1)  (* 2 C2)  (* 2 C3)  (* 2 C4)  (* 1 C5)  (* 1 C6)  (* 1 C7)  (* 1 C8) ) 2460 )  (<=  (+  (* 6 C1)  (* 2 C2)  (* 2 C3)  (* 2 C4)  (* 2 C5)  (* 1 C6)  (* 1 C7)  (* 1 C8) ) 2567 )  (<=  (+  (* 6 C1)  (* 2 C2)  (* 2 C3)  (* 2 C4)  (* 2 C5)  (* 2 C6)  (* 1 C7)  (* 1 C8) ) 2706 )  (<=  (+  (* 7 C1)  (* 2 C2)  (* 2 C3)  (* 2 C4)  (* 2 C5)  (* 2 C6)  (* 1 C7)  (* 1 C8) ) 3132 )  (<=  (+  (* 7 C1)  (* 3 C2)  (* 2 C3)  (* 2 C4)  (* 2 C5)  (* 2 C6)  (* 1 C7)  (* 1 C8) ) 3147 )  (<=  (+  (* 8 C1)  (* 3 C2)  (* 2 C3)  (* 2 C4)  (* 2 C5)  (* 2 C6)  (* 2 C7)  (* 1 C8) ) 3608 )  (<=  (+  (* 9 C1)  (* 3 C2)  (* 2 C3)  (* 2 C4)  (* 2 C5)  (* 2 C6)  (* 2 C7)  (* 1 C8) ) 3890 ) ) ( or  (<=  (+  (* 3 C1)  (* 1 C2)  (* 1 C3)  (* 1 C4)  (* 1 C5)  (* 1 C6)  (* 1 C7) ) 1353 )  (<=  (+  (* 4 C1)  (* 1 C2)  (* 1 C3)  (* 1 C4)  (* 1 C5)  (* 1 C6)  (* 1 C7) ) 1566 )  (<=  (+  (* 4 C1)  (* 2 C2)  (* 1 C3)  (* 1 C4)  (* 1 C5)  (* 1 C6)  (* 1 C7) ) 1804 )  (<=  (+  (* 5 C1)  (* 2 C2)  (* 1 C3)  (* 1 C4)  (* 1 C5)  (* 1 C6)  (* 1 C7) ) 2207 )  (<=  (+  (* 5 C1)  (* 2 C2)  (* 2 C3)  (* 1 C4)  (* 1 C5)  (* 1 C6)  (* 1 C7) ) 2255 )  (<=  (+  (* 6 C1)  (* 2 C2)  (* 2 C3)  (* 1 C4)  (* 1 C5)  (* 1 C6)  (* 1 C7) ) 2262 )  (<=  (+  (* 6 C1)  (* 2 C2)  (* 2 C3)  (* 2 C4)  (* 1 C5)  (* 1 C6)  (* 1 C7) ) 2460 )  (<=  (+  (* 6 C1)  (* 2 C2)  (* 2 C3)  (* 2 C4)  (* 2 C5)  (* 1 C6)  (* 1 C7) ) 2567 )  (<=  (+  (* 6 C1)  (* 2 C2)  (* 2 C3)  (* 2 C4)  (* 2 C5)  (* 2 C6)  (* 1 C7) ) 2706 )  (<=  (+  (* 7 C1)  (* 2 C2)  (* 2 C3)  (* 2 C4)  (* 2 C5)  (* 2 C6)  (* 1 C7) ) 3132 )  (<=  (+  (* 7 C1)  (* 3 C2)  (* 2 C3)  (* 2 C4)  (* 2 C5)  (* 2 C6)  (* 1 C7) ) 3147 ) ) ( or  (<=  (+  (* 3 C1)  (* 1 C2)  (* 1 C3)  (* 1 C4)  (* 1 C5)  (* 1 C6) ) 1353 )  (<=  (+  (* 4 C1)  (* 1 C2)  (* 1 C3)  (* 1 C4)  (* 1 C5)  (* 1 C6) ) 1566 )  (<=  (+  (* 4 C1)  (* 2 C2)  (* 1 C3)  (* 1 C4)  (* 1 C5)  (* 1 C6) ) 1804 )  (<=  (+  (* 5 C1)  (* 2 C2)  (* 1 C3)  (* 1 C4)  (* 1 C5)  (* 1 C6) ) 2207 )  (<=  (+  (* 5 C1)  (* 2 C2)  (* 2 C3)  (* 1 C4)  (* 1 C5)  (* 1 C6) ) 2255 )  (<=  (+  (* 6 C1)  (* 2 C2)  (* 2 C3)  (* 1 C4)  (* 1 C5)  (* 1 C6) ) 2262 )  (<=  (+  (* 6 C1)  (* 2 C2)  (* 2 C3)  (* 2 C4)  (* 1 C5)  (* 1 C6) ) 2460 )  (<=  (+  (* 6 C1)  (* 2 C2)  (* 2 C3)  (* 2 C4)  (* 2 C5)  (* 1 C6) ) 2567 ) ) ( or  (<=  (+  (* 3 C1)  (* 1 C2)  (* 1 C3)  (* 1 C4)  (* 1 C5) ) 1353 )  (<=  (+  (* 4 C1)  (* 1 C2)  (* 1 C3)  (* 1 C4)  (* 1 C5) ) 1566 )  (<=  (+  (* 4 C1)  (* 2 C2)  (* 1 C3)  (* 1 C4)  (* 1 C5) ) 1804 )  (<=  (+  (* 5 C1)  (* 2 C2)  (* 1 C3)  (* 1 C4)  (* 1 C5) ) 2207 )  (<=  (+  (* 5 C1)  (* 2 C2)  (* 2 C3)  (* 1 C4)  (* 1 C5) ) 2255 )  (<=  (+  (* 6 C1)  (* 2 C2)  (* 2 C3)  (* 1 C4)  (* 1 C5) ) 2262 )  (<=  (+  (* 6 C1)  (* 2 C2)  (* 2 C3)  (* 2 C4)  (* 1 C5) ) 2460 ) ) ( or  (<=  (+  (* 3 C1)  (* 1 C2)  (* 1 C3)  (* 1 C4) ) 1353 )  (<=  (+  (* 4 C1)  (* 1 C2)  (* 1 C3)  (* 1 C4) ) 1566 )  (<=  (+  (* 4 C1)  (* 2 C2)  (* 1 C3)  (* 1 C4) ) 1804 )  (<=  (+  (* 5 C1)  (* 2 C2)  (* 1 C3)  (* 1 C4) ) 2207 )  (<=  (+  (* 5 C1)  (* 2 C2)  (* 2 C3)  (* 1 C4) ) 2255 )  (<=  (+  (* 6 C1)  (* 2 C2)  (* 2 C3)  (* 1 C4) ) 2262 ) ) ( or  (<=  (+  (* 3 C1)  (* 1 C2)  (* 1 C3) ) 1353 )  (<=  (+  (* 4 C1)  (* 1 C2)  (* 1 C3) ) 1566 )  (<=  (+  (* 4 C1)  (* 2 C2)  (* 1 C3) ) 1804 )  (<=  (+  (* 5 C1)  (* 2 C2)  (* 1 C3) ) 2207 ) ) ( or  (<=  (+  (* 3 C1)  (* 1 C2) ) 1353 )  (<=  (+  (* 4 C1)  (* 1 C2) ) 1566 ) ) ( or  (<=  (* 1 C1)  451 ) )  (and (>= C1 4) (>= C2 15) (>= C3 22) (>= C4 22) (>= C5 24) (>= C6 25) (>= C7 31) (>= C8 38) (>= C9 39) (>= C10 46) )  (and (<= C1 226) (<= C2 786) (<= C3 1108) (<= C4 1135) (<= C5 1235) (<= C6 1289) (<= C7 1580) (<= C8 1953) (<= C9 1964) (<= C10 2335) ) (= y (+ (/ C1 451) (/ C2 1566) (/ C3 2207) (/ C4 2262) (/ C5 2460) (/ C6 2567) (/ C7 3147) (/ C8 3890) (/ C9 3912) (/ C10 4651) )) ))
(maximize y)
(check-sat)
